proyfinal/src/viki/013/experimentInOfficeAgust.take6.output/b2a1a6ec-357e-4035-b637-a36c65e5da8d.als.out
Reading from standard input... Use '--help' for help.
============================[ Problem Statistics ]=============================
|                                                                             |
|  Number of variables:         87638                                         |
|  Number of clauses:          161767                                         |
|  Parse time:                   0.03 s                                       |
|                                                                             |
============================[ Search Statistics ]==============================
| Conflicts |          ORIGINAL         |          LEARNT          | Progress |
|           |    Vars  Clauses Literals |    Limit  Clauses Lit/Cl |          |
===============================================================================
|       100 |   62540   105781   264395 |    38786      100      9 | 28.638 % |
|       250 |   62540   105781   264395 |    42665      250     13 | 28.638 % |
|       475 |   62540   105781   264395 |    46931      475     79 | 28.638 % |
|       812 |   62540   105781   264395 |    51624      812     98 | 28.638 % |
|      1318 |   62540   105781   264395 |    56787     1318    106 | 28.638 % |
|      2077 |   62520   105703   264208 |    62465     1944    104 | 28.661 % |
===============================================================================
restarts              : 15
conflicts             : 2967           (6231 /sec)
decisions             : 12358          (0.00 % random) (25953 /sec)
propagations          : 5626468        (11816215 /sec)
conflict literals     : 247947         (53.54 % deleted)
Memory used           : 20.81 MB
CPU time              : 0.476165 s

UNSATISFIABLE
